\ LP format - for model browsing. Use MPS format to capture full model detail.
Minimize
  3023 x[0,1] + 1969 x[0,2] + 2617 x[0,3] + 3138 x[0,4] + 3560 x[0,5]
   + 2256 x[0,6] + 2435 x[0,7] + 632 x[0,8] + 1640 x[0,9] + 1140 x[1,2]
   + 1403 x[1,3] + 223 x[1,4] + 1140 x[1,5] + 1236 x[1,6] + 921 x[1,7]
   + 3252 x[1,8] + 1552 x[1,9] + 943 x[2,3] + 1204 x[2,4] + 2039 x[2,5]
   + 500 x[2,6] + 500 x[2,7] + 2126 x[2,8] + 943 x[2,9] + 1303 x[3,4]
   + 2531 x[3,5] + 447 x[3,6] + 583 x[3,7] + 2563 x[3,8] + 1886 x[3,9]
   + 1300 x[4,5] + 1208 x[4,6] + 894 x[4,7] + 3330 x[4,8] + 1726 x[4,9]
   + 2300 x[5,6] + 2002 x[5,7] + 3944 x[5,8] + 1920 x[5,9] + 316 x[6,7]
   + 2282 x[6,8] + 1442 x[6,9] + 2523 x[7,8] + 1392 x[7,9] + 2061 x[8,9]
Subject To
 Cardinality: x[0,1] + x[0,2] + x[0,3] + x[0,4] + x[0,5] + x[0,6] + x[0,7]
   + x[0,8] + x[0,9] + x[1,2] + x[1,3] + x[1,4] + x[1,5] + x[1,6] + x[1,7]
   + x[1,8] + x[1,9] + x[2,3] + x[2,4] + x[2,5] + x[2,6] + x[2,7] + x[2,8]
   + x[2,9] + x[3,4] + x[3,5] + x[3,6] + x[3,7] + x[3,8] + x[3,9] + x[4,5]
   + x[4,6] + x[4,7] + x[4,8] + x[4,9] + x[5,6] + x[5,7] + x[5,8] + x[5,9]
   + x[6,7] + x[6,8] + x[6,9] + x[7,8] + x[7,9] + x[8,9] = 9
 Flow_at_root: f[0,1] + f[0,2] + f[0,3] + f[0,4] + f[0,5] + f[0,6] + f[0,7]
   + f[0,8] + f[0,9] - f[1,0] - f[2,0] - f[3,0] - f[4,0] - f[5,0] - f[6,0]
   - f[7,0] - f[8,0] - f[9,0] = 9
 Balance_1: f[0,1] - f[1,0] - f[1,2] - f[1,3] - f[1,4] - f[1,5] - f[1,6]
   - f[1,7] - f[1,8] - f[1,9] + f[2,1] + f[3,1] + f[4,1] + f[5,1] + f[6,1]
   + f[7,1] + f[8,1] + f[9,1] = 1
 Balance_2: f[0,2] + f[1,2] - f[2,0] - f[2,1] - f[2,3] - f[2,4] - f[2,5]
   - f[2,6] - f[2,7] - f[2,8] - f[2,9] + f[3,2] + f[4,2] + f[5,2] + f[6,2]
   + f[7,2] + f[8,2] + f[9,2] = 1
 Balance_3: f[0,3] + f[1,3] + f[2,3] - f[3,0] - f[3,1] - f[3,2] - f[3,4]
   - f[3,5] - f[3,6] - f[3,7] - f[3,8] - f[3,9] + f[4,3] + f[5,3] + f[6,3]
   + f[7,3] + f[8,3] + f[9,3] = 1
 Balance_4: f[0,4] + f[1,4] + f[2,4] + f[3,4] - f[4,0] - f[4,1] - f[4,2]
   - f[4,3] - f[4,5] - f[4,6] - f[4,7] - f[4,8] - f[4,9] + f[5,4] + f[6,4]
   + f[7,4] + f[8,4] + f[9,4] = 1
 Balance_5: f[0,5] + f[1,5] + f[2,5] + f[3,5] + f[4,5] - f[5,0] - f[5,1]
   - f[5,2] - f[5,3] - f[5,4] - f[5,6] - f[5,7] - f[5,8] - f[5,9] + f[6,5]
   + f[7,5] + f[8,5] + f[9,5] = 1
 Balance_6: f[0,6] + f[1,6] + f[2,6] + f[3,6] + f[4,6] + f[5,6] - f[6,0]
   - f[6,1] - f[6,2] - f[6,3] - f[6,4] - f[6,5] - f[6,7] - f[6,8] - f[6,9]
   + f[7,6] + f[8,6] + f[9,6] = 1
 Balance_7: f[0,7] + f[1,7] + f[2,7] + f[3,7] + f[4,7] + f[5,7] + f[6,7]
   - f[7,0] - f[7,1] - f[7,2] - f[7,3] - f[7,4] - f[7,5] - f[7,6] - f[7,8]
   - f[7,9] + f[8,7] + f[9,7] = 1
 Balance_8: f[0,8] + f[1,8] + f[2,8] + f[3,8] + f[4,8] + f[5,8] + f[6,8]
   + f[7,8] - f[8,0] - f[8,1] - f[8,2] - f[8,3] - f[8,4] - f[8,5] - f[8,6]
   - f[8,7] - f[8,9] + f[9,8] = 1
 Balance_9: f[0,9] + f[1,9] + f[2,9] + f[3,9] + f[4,9] + f[5,9] + f[6,9]
   + f[7,9] + f[8,9] - f[9,0] - f[9,1] - f[9,2] - f[9,3] - f[9,4] - f[9,5]
   - f[9,6] - f[9,7] - f[9,8] = 1
 Force_f(0,1)_x(0,1): - 9 x[0,1] + f[0,1] <= 0
 Force_f(1,0)_x(0,1): - 9 x[0,1] + f[1,0] <= 0
 Force_f(0,2)_x(0,2): - 9 x[0,2] + f[0,2] <= 0
 Force_f(2,0)_x(0,2): - 9 x[0,2] + f[2,0] <= 0
 Force_f(0,3)_x(0,3): - 9 x[0,3] + f[0,3] <= 0
 Force_f(3,0)_x(0,3): - 9 x[0,3] + f[3,0] <= 0
 Force_f(0,4)_x(0,4): - 9 x[0,4] + f[0,4] <= 0
 Force_f(4,0)_x(0,4): - 9 x[0,4] + f[4,0] <= 0
 Force_f(0,5)_x(0,5): - 9 x[0,5] + f[0,5] <= 0
 Force_f(5,0)_x(0,5): - 9 x[0,5] + f[5,0] <= 0
 Force_f(0,6)_x(0,6): - 9 x[0,6] + f[0,6] <= 0
 Force_f(6,0)_x(0,6): - 9 x[0,6] + f[6,0] <= 0
 Force_f(0,7)_x(0,7): - 9 x[0,7] + f[0,7] <= 0
 Force_f(7,0)_x(0,7): - 9 x[0,7] + f[7,0] <= 0
 Force_f(0,8)_x(0,8): - 9 x[0,8] + f[0,8] <= 0
 Force_f(8,0)_x(0,8): - 9 x[0,8] + f[8,0] <= 0
 Force_f(0,9)_x(0,9): - 9 x[0,9] + f[0,9] <= 0
 Force_f(9,0)_x(0,9): - 9 x[0,9] + f[9,0] <= 0
 Force_f(1,2)_x(1,2): - 9 x[1,2] + f[1,2] <= 0
 Force_f(2,1)_x(1,2): - 9 x[1,2] + f[2,1] <= 0
 Force_f(1,3)_x(1,3): - 9 x[1,3] + f[1,3] <= 0
 Force_f(3,1)_x(1,3): - 9 x[1,3] + f[3,1] <= 0
 Force_f(1,4)_x(1,4): - 9 x[1,4] + f[1,4] <= 0
 Force_f(4,1)_x(1,4): - 9 x[1,4] + f[4,1] <= 0
 Force_f(1,5)_x(1,5): - 9 x[1,5] + f[1,5] <= 0
 Force_f(5,1)_x(1,5): - 9 x[1,5] + f[5,1] <= 0
 Force_f(1,6)_x(1,6): - 9 x[1,6] + f[1,6] <= 0
 Force_f(6,1)_x(1,6): - 9 x[1,6] + f[6,1] <= 0
 Force_f(1,7)_x(1,7): - 9 x[1,7] + f[1,7] <= 0
 Force_f(7,1)_x(1,7): - 9 x[1,7] + f[7,1] <= 0
 Force_f(1,8)_x(1,8): - 9 x[1,8] + f[1,8] <= 0
 Force_f(8,1)_x(1,8): - 9 x[1,8] + f[8,1] <= 0
 Force_f(1,9)_x(1,9): - 9 x[1,9] + f[1,9] <= 0
 Force_f(9,1)_x(1,9): - 9 x[1,9] + f[9,1] <= 0
 Force_f(2,3)_x(2,3): - 9 x[2,3] + f[2,3] <= 0
 Force_f(3,2)_x(2,3): - 9 x[2,3] + f[3,2] <= 0
 Force_f(2,4)_x(2,4): - 9 x[2,4] + f[2,4] <= 0
 Force_f(4,2)_x(2,4): - 9 x[2,4] + f[4,2] <= 0
 Force_f(2,5)_x(2,5): - 9 x[2,5] + f[2,5] <= 0
 Force_f(5,2)_x(2,5): - 9 x[2,5] + f[5,2] <= 0
 Force_f(2,6)_x(2,6): - 9 x[2,6] + f[2,6] <= 0
 Force_f(6,2)_x(2,6): - 9 x[2,6] + f[6,2] <= 0
 Force_f(2,7)_x(2,7): - 9 x[2,7] + f[2,7] <= 0
 Force_f(7,2)_x(2,7): - 9 x[2,7] + f[7,2] <= 0
 Force_f(2,8)_x(2,8): - 9 x[2,8] + f[2,8] <= 0
 Force_f(8,2)_x(2,8): - 9 x[2,8] + f[8,2] <= 0
 Force_f(2,9)_x(2,9): - 9 x[2,9] + f[2,9] <= 0
 Force_f(9,2)_x(2,9): - 9 x[2,9] + f[9,2] <= 0
 Force_f(3,4)_x(3,4): - 9 x[3,4] + f[3,4] <= 0
 Force_f(4,3)_x(3,4): - 9 x[3,4] + f[4,3] <= 0
 Force_f(3,5)_x(3,5): - 9 x[3,5] + f[3,5] <= 0
 Force_f(5,3)_x(3,5): - 9 x[3,5] + f[5,3] <= 0
 Force_f(3,6)_x(3,6): - 9 x[3,6] + f[3,6] <= 0
 Force_f(6,3)_x(3,6): - 9 x[3,6] + f[6,3] <= 0
 Force_f(3,7)_x(3,7): - 9 x[3,7] + f[3,7] <= 0
 Force_f(7,3)_x(3,7): - 9 x[3,7] + f[7,3] <= 0
 Force_f(3,8)_x(3,8): - 9 x[3,8] + f[3,8] <= 0
 Force_f(8,3)_x(3,8): - 9 x[3,8] + f[8,3] <= 0
 Force_f(3,9)_x(3,9): - 9 x[3,9] + f[3,9] <= 0
 Force_f(9,3)_x(3,9): - 9 x[3,9] + f[9,3] <= 0
 Force_f(4,5)_x(4,5): - 9 x[4,5] + f[4,5] <= 0
 Force_f(5,4)_x(4,5): - 9 x[4,5] + f[5,4] <= 0
 Force_f(4,6)_x(4,6): - 9 x[4,6] + f[4,6] <= 0
 Force_f(6,4)_x(4,6): - 9 x[4,6] + f[6,4] <= 0
 Force_f(4,7)_x(4,7): - 9 x[4,7] + f[4,7] <= 0
 Force_f(7,4)_x(4,7): - 9 x[4,7] + f[7,4] <= 0
 Force_f(4,8)_x(4,8): - 9 x[4,8] + f[4,8] <= 0
 Force_f(8,4)_x(4,8): - 9 x[4,8] + f[8,4] <= 0
 Force_f(4,9)_x(4,9): - 9 x[4,9] + f[4,9] <= 0
 Force_f(9,4)_x(4,9): - 9 x[4,9] + f[9,4] <= 0
 Force_f(5,6)_x(5,6): - 9 x[5,6] + f[5,6] <= 0
 Force_f(6,5)_x(5,6): - 9 x[5,6] + f[6,5] <= 0
 Force_f(5,7)_x(5,7): - 9 x[5,7] + f[5,7] <= 0
 Force_f(7,5)_x(5,7): - 9 x[5,7] + f[7,5] <= 0
 Force_f(5,8)_x(5,8): - 9 x[5,8] + f[5,8] <= 0
 Force_f(8,5)_x(5,8): - 9 x[5,8] + f[8,5] <= 0
 Force_f(5,9)_x(5,9): - 9 x[5,9] + f[5,9] <= 0
 Force_f(9,5)_x(5,9): - 9 x[5,9] + f[9,5] <= 0
 Force_f(6,7)_x(6,7): - 9 x[6,7] + f[6,7] <= 0
 Force_f(7,6)_x(6,7): - 9 x[6,7] + f[7,6] <= 0
 Force_f(6,8)_x(6,8): - 9 x[6,8] + f[6,8] <= 0
 Force_f(8,6)_x(6,8): - 9 x[6,8] + f[8,6] <= 0
 Force_f(6,9)_x(6,9): - 9 x[6,9] + f[6,9] <= 0
 Force_f(9,6)_x(6,9): - 9 x[6,9] + f[9,6] <= 0
 Force_f(7,8)_x(7,8): - 9 x[7,8] + f[7,8] <= 0
 Force_f(8,7)_x(7,8): - 9 x[7,8] + f[8,7] <= 0
 Force_f(7,9)_x(7,9): - 9 x[7,9] + f[7,9] <= 0
 Force_f(9,7)_x(7,9): - 9 x[7,9] + f[9,7] <= 0
 Force_f(8,9)_x(8,9): - 9 x[8,9] + f[8,9] <= 0
 Force_f(9,8)_x(8,9): - 9 x[8,9] + f[9,8] <= 0
Bounds
 f[0,1] <= 7
 f[0,2] <= 7
 f[0,3] <= 7
 f[0,4] <= 7
 f[0,5] <= 7
 f[0,6] <= 7
 f[0,7] <= 7
 f[0,8] <= 7
 f[0,9] <= 7
 f[1,0] <= 7
 f[1,2] <= 7
 f[1,3] <= 7
 f[1,4] <= 7
 f[1,5] <= 7
 f[1,6] <= 7
 f[1,7] <= 7
 f[1,8] <= 7
 f[1,9] <= 7
 f[2,0] <= 7
 f[2,1] <= 7
 f[2,3] <= 7
 f[2,4] <= 7
 f[2,5] <= 7
 f[2,6] <= 7
 f[2,7] <= 7
 f[2,8] <= 7
 f[2,9] <= 7
 f[3,0] <= 7
 f[3,1] <= 7
 f[3,2] <= 7
 f[3,4] <= 7
 f[3,5] <= 7
 f[3,6] <= 7
 f[3,7] <= 7
 f[3,8] <= 7
 f[3,9] <= 7
 f[4,0] <= 7
 f[4,1] <= 7
 f[4,2] <= 7
 f[4,3] <= 7
 f[4,5] <= 7
 f[4,6] <= 7
 f[4,7] <= 7
 f[4,8] <= 7
 f[4,9] <= 7
 f[5,0] <= 7
 f[5,1] <= 7
 f[5,2] <= 7
 f[5,3] <= 7
 f[5,4] <= 7
 f[5,6] <= 7
 f[5,7] <= 7
 f[5,8] <= 7
 f[5,9] <= 7
 f[6,0] <= 7
 f[6,1] <= 7
 f[6,2] <= 7
 f[6,3] <= 7
 f[6,4] <= 7
 f[6,5] <= 7
 f[6,7] <= 7
 f[6,8] <= 7
 f[6,9] <= 7
 f[7,0] <= 7
 f[7,1] <= 7
 f[7,2] <= 7
 f[7,3] <= 7
 f[7,4] <= 7
 f[7,5] <= 7
 f[7,6] <= 7
 f[7,8] <= 7
 f[7,9] <= 7
 f[8,0] <= 7
 f[8,1] <= 7
 f[8,2] <= 7
 f[8,3] <= 7
 f[8,4] <= 7
 f[8,5] <= 7
 f[8,6] <= 7
 f[8,7] <= 7
 f[8,9] <= 7
 f[9,0] <= 7
 f[9,1] <= 7
 f[9,2] <= 7
 f[9,3] <= 7
 f[9,4] <= 7
 f[9,5] <= 7
 f[9,6] <= 7
 f[9,7] <= 7
 f[9,8] <= 7
Binaries
 x[0,1] x[0,2] x[0,3] x[0,4] x[0,5] x[0,6] x[0,7] x[0,8] x[0,9] x[1,2]
 x[1,3] x[1,4] x[1,5] x[1,6] x[1,7] x[1,8] x[1,9] x[2,3] x[2,4] x[2,5]
 x[2,6] x[2,7] x[2,8] x[2,9] x[3,4] x[3,5] x[3,6] x[3,7] x[3,8] x[3,9]
 x[4,5] x[4,6] x[4,7] x[4,8] x[4,9] x[5,6] x[5,7] x[5,8] x[5,9] x[6,7]
 x[6,8] x[6,9] x[7,8] x[7,9] x[8,9]
End
